625,51
801,406
829,383
814,338
765,490
655,419
245,89
760,-97
769,392
709,583
515,919
342,652
512,575
624,424
482,342
655,419
709,583
755,634
874,672
1069,688
755,634
765,490
1006,457
822,212
1108,189
536,301
368,507
291,406
342,652
540,600
512,575
597,322
769,392
947,599
782,719
